c turning on binary mode checking
c parsing input formula with 202048 variables and 780980 clauses
c finished parsing, read 2289810 bytes from proof file
c detected empty clause; start verification via backward checking
c 9839 of 780980 clauses in core                            
c 3280 of 90509 lemmas in core using 155572 resolution steps
c 0 RAT lemmas in core; 1226 redundant literals in core lemmas
s VERIFIED
c verification time: 1.332 seconds
